n_res = 4;
rcap = [21, 32, 96, 93];
rtype = [1, 1, 2, 2];
n_tasks = 16;
modes = [ {1, 2, 3}, {4, 5, 6}, {7, 8, 9}, {10, 11, 12}, {13, 14, 15}, {16, 17, 18}, {19, 20, 21}, {22, 23, 24}, {25, 26, 27}, {28, 29, 30}, {31, 32, 33}, {34, 35, 36}, {37, 38, 39}, {40, 41, 42}, {43, 44, 45}, {46, 47, 48} ];
succ = [ {4, 16}, {5, 7, 10}, {5, 11}, {14, 15}, {6, 8}, {9}, {9, 13}, {12, 14}, {16}, {11}, {14}, {15}, {15}, {}, {}, {} ];
n_opt = 48;
dur = [1, 2, 8, 3, 4, 7, 1, 2, 5, 2, 6, 8, 3, 7, 7, 3, 3, 10, 2, 4, 7, 1, 6, 7, 4, 6, 8, 3, 7, 9, 1, 2, 9, 3, 6, 8, 6, 6, 7, 1, 9, 10, 3, 7, 9, 1, 4, 6];
rreq = [|  9,  7,  0,  0,  8,  7,  4,  0,  0,  6,  3,  0,  0,  0,  5,  0,  2,  0,  0,  5,  4,  0,  0,  0,  5,  0,  0,  7,  5,  0,  3,  0,  0,  0,  5,  0,  9, 10,  8,  4,  1,  0,  0,  5,  0,  0,  0,  3
        |  0,  0, 10,  2,  0,  0,  0,  7,  3,  0,  0,  3,  7,  3,  0,  8,  0,  8,  9,  0,  0,  9,  8,  3,  0,  9,  8,  0,  0,  5,  0,  6,  6,  2,  0,  2,  0,  0,  0,  0,  0,  4,  6,  0,  5,  3,  1,  0
        |  7,  6,  5,  3,  3,  2,  2,  1,  1,  9,  5,  4,  8,  7,  6,  3,  3,  2,  9,  6,  3,  6,  5,  3,  4,  3,  3,  2,  2,  1,  7,  5,  4,  5,  3,  2,  8,  8,  8,  8,  6,  4,  6,  6,  5,  9,  4,  1
        |  3,  2,  2,  3,  2,  2,  6,  6,  5,  3,  2,  2,  7,  7,  5,  4,  3,  3,  5,  4,  4,  9,  7,  5,  4,  4,  2,  7,  6,  4,  3,  3,  3,  8,  7,  7,  9,  6,  6,  8,  4,  4,  6,  5,  3,  8,  6,  4 |];
